results_rootrelaxation/bin018_060_015.srr.sol
solution status: optimal solution found
objective value:                                    0
_var2778_                           0.122350444152575 	(obj:0)
_var2792_                           0.283524996625249 	(obj:0)
_var2800_                           0.298651957913399 	(obj:0)
_var2801_                           0.139377212176605 	(obj:0)
_var2811_                           0.133345017135881 	(obj:0)
_var2841_                           0.110171396536935 	(obj:0)
_var2845_                           0.051365759012389 	(obj:0)
_var2854_                           0.137449430984487 	(obj:0)
_var2855_                           0.256614158958758 	(obj:0)
_var2857_                            0.23640708359055 	(obj:0)
_var2858_                            0.16994389372608 	(obj:0)
_var2867_                          0.0110538434554628 	(obj:0)
_var2872_                           0.305445337408117 	(obj:0)
_var2879_                          0.0846560553385915 	(obj:0)
_var2880_                          0.0229644842449942 	(obj:0)
_var2881_                           0.260717183318581 	(obj:0)
_var2883_                           0.203635528957395 	(obj:0)
_var2890_                           0.363458200763387 	(obj:0)
_var2891_                           0.205830527780086 	(obj:0)
_var2893_                            0.21049803852016 	(obj:0)
_var2899_                           0.099804876257686 	(obj:0)
_var2901_                           0.162477297254083 	(obj:0)
_var2902_                           0.301554642839027 	(obj:0)
_var2908_                           0.266379719626256 	(obj:0)
_var2909_                          0.0961864211691539 	(obj:0)
_var2917_                          0.0438958997178672 	(obj:0)
_var2918_                           0.176258096287935 	(obj:0)
_var2927_                           0.141693055541897 	(obj:0)
_var2928_                           0.214669360534629 	(obj:0)
_var2930_                           0.235287874039771 	(obj:0)
_var2931_                           0.324095477067531 	(obj:0)
_var2933_                           0.269812693891302 	(obj:0)
_var2937_                         0.00977200953025781 	(obj:0)
_var2941_                          0.0840652492151922 	(obj:0)
_var2943_                          0.0972270594559751 	(obj:0)
_var2944_                          0.0332769545889546 	(obj:0)
_var2948_                           0.152843806289759 	(obj:0)
_var2952_                          0.0370415692296019 	(obj:0)
_var2955_                          0.0322393042774153 	(obj:0)
_var2958_                          0.0592945384401855 	(obj:0)
_var2960_                          0.0180259848066505 	(obj:0)
_var2968_                          0.0695171842928148 	(obj:0)
_var2973_                           0.147175108156008 	(obj:0)
_var2974_                         0.00248219997884577 	(obj:0)
_var2979_                          0.0144821433048503 	(obj:0)
_var2981_                          0.0695311414988845 	(obj:0)
_var2986_                          0.0810065723106464 	(obj:0)
_var2993_                          0.0235942355491715 	(obj:0)
_var2998_                           0.139038570080029 	(obj:0)
_var3007_                           0.352193459035727 	(obj:0)
_var3012_                          0.0309320228996711 	(obj:0)
_var3015_                           0.130154361344101 	(obj:0)
_var3019_                           0.176577975788261 	(obj:0)
_var3020_                         0.00230456354754119 	(obj:0)
_var3021_                          0.0362488052459179 	(obj:0)
_var3022_                           0.219273731806352 	(obj:0)
_var3023_                           0.306771429018575 	(obj:0)
_var3029_                           0.220310148066922 	(obj:0)
_var3035_                           0.146735486584683 	(obj:0)
_var3037_                           0.135719270476959 	(obj:0)
_var3042_                           0.111220634773552 	(obj:0)
_var3044_                           0.190848230891758 	(obj:0)
_var3046_                          0.0330023026595812 	(obj:0)
_var3050_                           0.170322461135916 	(obj:0)
_var3051_                           0.218984403661096 	(obj:0)
_var3055_                         0.00287900403882896 	(obj:0)
_var3067_                          0.0770746906315888 	(obj:0)
_var3070_                          0.0451411596101632 	(obj:0)
_var3071_                           0.225320114963139 	(obj:0)
_var3072_                          0.0157991884360305 	(obj:0)
_var3075_                           0.162317491283229 	(obj:0)
_var3079_                           0.108169896579337 	(obj:0)
_var3080_                          0.0508516856454187 	(obj:0)
_var3081_                          0.0974173070257618 	(obj:0)
_var3086_                           0.141298710081909 	(obj:0)
_var3090_                           0.112956514828666 	(obj:0)
_var3093_                          0.0555095854284225 	(obj:0)
_var3094_                           0.159437475368093 	(obj:0)
_var3096_                           0.129837538002201 	(obj:0)
_var3098_                          0.0403339809411305 	(obj:0)
_var3099_                           0.469164634822801 	(obj:0)
_var3102_                           0.214988876547029 	(obj:0)
_var3103_                          0.0797650467116489 	(obj:0)
_var3104_                          0.0753809544860936 	(obj:0)
_var3106_                          0.0751116934318567 	(obj:0)
_var3107_                           0.127736150693674 	(obj:0)
_var3109_                          0.0870631694196371 	(obj:0)
_var3115_                           0.248400420657861 	(obj:0)
_var3120_                          0.0585449236278676 	(obj:0)
_var3121_                          0.0820975933239742 	(obj:0)
_var3124_                          0.0678596550127715 	(obj:0)
_var3128_                          0.0192257322421011 	(obj:0)
_var3130_                          0.0545273563672906 	(obj:0)
_var3131_                          0.0545070402392873 	(obj:0)
_var3134_                          0.0440213501946427 	(obj:0)
_var3136_                          0.0192479986131783 	(obj:0)
_var3139_                          0.0737315204336211 	(obj:0)
_var3140_                          0.0018391147352396 	(obj:0)
_var3142_                           0.285336279506836 	(obj:0)
_var3144_                         0.00193978902423288 	(obj:0)
_var3145_                           0.263989690013495 	(obj:0)
_var3147_                          0.0121192341503039 	(obj:0)
_var3148_                          0.0614408716760667 	(obj:0)
_var3150_                          0.0713749280402635 	(obj:0)
_var3151_                          0.0233606503437021 	(obj:0)
_var3152_                          0.0419111088029198 	(obj:0)
_var3154_                          0.0537827342638596 	(obj:0)
_var3155_                          0.0813773841072336 	(obj:0)
_var3156_                          0.0732010953084866 	(obj:0)
_var3158_                          0.0957389551225918 	(obj:0)
_var3159_                           0.314934248645478 	(obj:0)
_var3160_                          0.0580446406112989 	(obj:0)
_var3161_                           0.147088483133702 	(obj:0)
_var3162_                          0.0481248119697098 	(obj:0)
_var3168_                          0.0892392210120087 	(obj:0)
_var3171_                          0.0859285475632655 	(obj:0)
_var3172_                           0.141379031348768 	(obj:0)
_var3173_                         0.00164020696484529 	(obj:0)
_var3177_                          0.0557567005096125 	(obj:0)
_var3179_                         0.00240430198783809 	(obj:0)
_var3180_                           0.012188944377258 	(obj:0)
_var3181_                            0.12276595115638 	(obj:0)
_var3183_                          0.0143510562459345 	(obj:0)
_var3184_                           0.266699894408022 	(obj:0)
_var3187_                           0.175434552464756 	(obj:0)
_var3188_                         0.00880459966243744 	(obj:0)
_var3189_                          0.0725409369224582 	(obj:0)
_var3190_                         0.00581273240078349 	(obj:0)
_var3191_                           0.197688752399558 	(obj:0)
_var3192_                           0.227285770829082 	(obj:0)
_var3195_                           0.109683205460527 	(obj:0)
_var3197_                          0.0487008441879603 	(obj:0)
_var3198_                          0.0515182411486914 	(obj:0)
_var3199_                            0.16348788016204 	(obj:0)
_var3200_                          0.0868207346645843 	(obj:0)
_var3201_                           0.175992991299388 	(obj:0)
_var3203_                          0.0884375276747155 	(obj:0)
_var3204_                           0.110626985395359 	(obj:0)
_var3205_                          0.0555223813553435 	(obj:0)
_var3206_                         0.00845635144496673 	(obj:0)
_var3208_                          0.0656258109043457 	(obj:0)
_var3210_                          0.0454449059336222 	(obj:0)
_var3212_                          0.0100166058338437 	(obj:0)
_var3215_                         0.00537220282574891 	(obj:0)
_var3218_                          0.0167675514295259 	(obj:0)
_var3224_                          0.0144331173668946 	(obj:0)
_var3225_                         0.00460103005579791 	(obj:0)
_var3227_                          0.0152738326180743 	(obj:0)
_var3231_                          0.0160504139969607 	(obj:0)
_var3232_                          0.0241348240752524 	(obj:0)
